* ENCODING=ISO-8859-1
NAME          CPLEX
ROWS
 N  obj1    
 G  c1      
 G  c2      
 G  c3      
 G  c4      
 G  c5      
 G  c6      
 G  c7      
 G  c8      
 G  c9      
 G  c10     
 G  c11     
 G  c12     
 G  c13     
 G  c14     
 G  c15     
 G  c16     
 G  c17     
 G  c18     
 G  c19     
 G  c20     
 G  c21     
 G  c22     
 G  c23     
 G  c24     
 G  c25     
 G  c26     
 G  c27     
 G  c28     
 G  c29     
 G  c30     
 G  c31     
 G  c32     
 G  c33     
 G  c34     
 G  c35     
 G  c36     
 G  c37     
 G  c38     
 G  c39     
 G  c40     
 G  c41     
 G  c42     
 G  c43     
 G  c44     
 G  c45     
 G  c46     
 G  c47     
 G  c48     
 G  c49     
 G  c50     
COLUMNS
    MARK0000  'MARKER'                 'INTORG'
    x1        obj1                            1
    x1        c3                            649
    x1        c4                            705
    x1        c20                           376
    x1        c27                           465
    x1        c36                           298
    x2        obj1                            1
    x2        c12                           616
    x2        c14                           389
    x2        c46                           814
    x2        c50                           153
    x3        obj1                            1
    x3        c11                           308
    x3        c15                           630
    x3        c35                           628
    x3        c37                           656
    x3        c46                           239
    x4        obj1                            1
    x4        c6                            470
    x4        c9                            775
    x4        c10                           798
    x4        c28                           316
    x4        c32                           551
    x4        c48                           553
    x5        obj1                            1
    x5        c3                            882
    x5        c21                           607
    x5        c31                           544
    x5        c46                           620
    x6        obj1                            1
    x6        c23                           101
    x6        c27                           338
    x6        c29                           768
    x6        c37                           816
    x6        c40                           375
    x6        c43                           518
    x6        c47                           281
    x7        obj1                            1
    x7        c5                            653
    x7        c7                            264
    x7        c11                           924
    x7        c15                           757
    x7        c22                           335
    x7        c36                           708
    x7        c47                           303
    x8        obj1                            1
    x8        c2                            892
    x8        c7                            291
    x8        c13                           440
    x8        c14                           578
    x8        c35                           188
    x8        c45                           333
    x9        obj1                            1
    x9        c10                           740
    x9        c12                           222
    x9        c25                           683
    x9        c27                           467
    x9        c29                           464
    x9        c33                           362
    x10       obj1                            1
    x10       c16                           565
    x10       c22                           477
    x10       c23                           274
    x10       c37                           589
    x10       c38                           238
    x10       c47                           265
    x10       c49                           592
    x10       c50                           728
    x11       obj1                            1
    x11       c9                            319
    x11       c16                           901
    x11       c37                           779
    x11       c43                           809
    x12       obj1                            1
    x12       c13                           733
    x12       c14                           503
    x12       c30                           930
    x12       c35                           946
    x12       c44                           375
    x13       obj1                            1
    x13       c3                            738
    x13       c8                            896
    x13       c21                           143
    x13       c33                           179
    x13       c43                           271
    x14       obj1                            1
    x14       c18                           353
    x14       c21                           321
    x14       c40                           495
    x14       c42                           890
    x14       c44                           584
    x14       c48                           328
    x15       obj1                            1
    x15       c3                            865
    x15       c4                            356
    x15       c28                           851
    x15       c38                           278
    x16       obj1                            1
    x16       c1                            966
    x16       c16                           901
    x16       c27                           799
    x16       c29                           699
    x16       c36                           456
    x16       c42                           617
    x17       obj1                            1
    x17       c9                            798
    x17       c13                           686
    x17       c32                           782
    x17       c41                           689
    x17       c46                           888
    x18       obj1                            1
    x18       c8                            535
    x18       c9                            595
    x18       c24                           528
    x18       c36                           371
    x18       c41                           754
    x19       obj1                            1
    x19       c6                            581
    x19       c47                           977
    x19       c50                           709
    x20       obj1                            1
    x20       c1                            355
    x20       c3                            256
    x20       c9                            957
    x20       c17                           831
    x20       c18                           814
    x20       c23                           595
    x20       c24                           107
    x20       c32                           613
    x20       c35                           748
    x20       c38                           467
    x20       c43                           109
    x20       c49                           927
    x21       obj1                            1
    x21       c12                           800
    x21       c31                           190
    x21       c45                           295
    x21       c48                           256
    x22       obj1                            1
    x22       c1                            226
    x22       c19                           540
    x22       c24                           636
    x22       c25                           720
    x22       c38                           225
    x22       c39                           699
    x22       c42                           186
    x22       c45                           284
    x22       c47                           839
    x23       obj1                            1
    x23       c6                            881
    x23       c7                            341
    x23       c11                           356
    x23       c17                           152
    x23       c31                           751
    x23       c41                           391
    x23       c48                           662
    x24       obj1                            1
    x24       c13                           203
    x25       obj1                            1
    x25       c7                            919
    x25       c20                           171
    x25       c21                           771
    x25       c22                           243
    x25       c28                           135
    x25       c36                           466
    x25       c49                           945
    x26       obj1                            1
    x26       c23                           142
    x26       c39                           427
    x26       c43                           792
    x26       c48                           279
    x27       obj1                            1
    x27       c3                            189
    x27       c13                           948
    x27       c23                           464
    x27       c33                           625
    x27       c41                           734
    x27       c50                           556
    x28       obj1                            1
    x28       c14                           246
    x28       c15                           884
    x28       c18                           298
    x28       c26                           561
    x28       c29                           819
    x28       c30                           642
    x28       c43                           411
    x29       obj1                            1
    x29       c16                           188
    x29       c43                           528
    x30       obj1                            1
    x30       c2                            854
    x30       c22                           647
    x30       c49                           688
    x31       obj1                            1
    x31       c4                            556
    x31       c23                           946
    x31       c34                           417
    x31       c41                           425
    x31       c49                           755
    x32       obj1                            1
    x32       c14                           892
    x32       c22                           920
    x32       c29                           229
    x33       obj1                            1
    x33       c26                           532
    x33       c30                           203
    x33       c33                           488
    x33       c38                           325
    x33       c40                           735
    x33       c50                           923
    x34       obj1                            1
    x34       c5                            971
    x34       c8                            424
    x34       c12                           547
    x34       c18                           764
    x34       c29                           124
    x34       c32                           823
    x34       c42                           436
    x35       obj1                            1
    x35       c10                           472
    x35       c15                           313
    x35       c18                           692
    x35       c20                           334
    x35       c22                           797
    x35       c37                           306
    x35       c41                           729
    x35       c46                           616
    x36       obj1                            1
    x36       c12                           916
    x36       c16                           216
    x36       c19                           772
    x36       c24                           149
    x36       c25                           450
    x37       obj1                            1
    x37       c1                            927
    x37       c2                            722
    x37       c6                            614
    x37       c9                           1000
    x37       c12                           471
    x37       c27                           619
    x37       c30                           672
    x38       obj1                            1
    x38       c5                            734
    x38       c7                            733
    x38       c15                           685
    x38       c34                           886
    x39       obj1                            1
    x39       c1                            537
    x39       c16                           900
    x39       c30                           720
    x40       obj1                            1
    x40       c21                           112
    x40       c22                           572
    x40       c39                           778
    x40       c42                           457
    x40       c44                           871
    x40       c49                           214
    x41       obj1                            1
    x41       c27                           510
    x41       c31                           845
    x41       c35                           753
    x42       obj1                            1
    x42       c2                            874
    x42       c19                           900
    x42       c27                           103
    x42       c35                           969
    x42       c46                           524
    x42       c50                           925
    x43       obj1                            1
    x43       c2                            146
    x43       c4                            317
    x43       c18                           152
    x43       c20                           739
    x43       c34                           157
    x44       obj1                            1
    x44       c1                            526
    x44       c2                            992
    x44       c4                            870
    x44       c10                           525
    x44       c16                           793
    x44       c20                           202
    x44       c26                           913
    x45       obj1                            1
    x45       c36                           345
    x45       c41                           517
    x46       obj1                            1
    x46       c2                            483
    x46       c13                           518
    x46       c21                           191
    x46       c33                           821
    x46       c47                           712
    x47       obj1                            1
    x47       c10                           432
    x47       c12                           885
    x47       c23                           127
    x47       c39                           267
    x47       c40                           768
    x47       c44                           278
    x48       obj1                            1
    x48       c3                            299
    x48       c8                            571
    x48       c10                           402
    x48       c11                           333
    x48       c17                           743
    x48       c32                           750
    x48       c33                           848
    x49       obj1                            1
    x49       c19                           934
    x49       c28                           545
    x49       c33                           705
    x49       c36                           328
    x49       c44                           737
    x50       obj1                            1
    x50       c38                           775
    x50       c50                           402
    MARK0001  'MARKER'                 'INTEND'
RHS
    rhs       c1                           1769
    rhs       c2                           2482
    rhs       c3                           1939
    rhs       c4                           1402
    rhs       c5                           1179
    rhs       c6                           1273
    rhs       c7                           1274
    rhs       c8                           1213
    rhs       c9                           2222
    rhs       c10                          1685
    rhs       c11                           961
    rhs       c12                          2229
    rhs       c13                          1764
    rhs       c14                          1304
    rhs       c15                          1635
    rhs       c16                          2232
    rhs       c17                           863
    rhs       c18                          1537
    rhs       c19                          1573
    rhs       c20                           911
    rhs       c21                          1073
    rhs       c22                          1996
    rhs       c23                          1325
    rhs       c24                           710
    rhs       c25                           927
    rhs       c26                          1003
    rhs       c27                          1651
    rhs       c28                           924
    rhs       c29                          1552
    rhs       c30                          1584
    rhs       c31                          1165
    rhs       c32                          1760
    rhs       c33                          2014
    rhs       c34                           730
    rhs       c35                          2116
    rhs       c36                          1486
    rhs       c37                          1573
    rhs       c38                          1154
    rhs       c39                          1086
    rhs       c40                          1187
    rhs       c41                          2120
    rhs       c42                          1293
    rhs       c43                          1719
    rhs       c44                          1423
    rhs       c45                           456
    rhs       c46                          1851
    rhs       c47                          1689
    rhs       c48                          1039
    rhs       c49                          2061
    rhs       c50                          2198
BOUNDS
 LI bnd       x1        0
 LI bnd       x2        0
 LI bnd       x3        0
 LI bnd       x4        0
 LI bnd       x5        0
 LI bnd       x6        0
 LI bnd       x7        0
 LI bnd       x8        0
 LI bnd       x9        0
 LI bnd       x10       0
 LI bnd       x11       0
 LI bnd       x12       0
 LI bnd       x13       0
 LI bnd       x14       0
 LI bnd       x15       0
 LI bnd       x16       0
 LI bnd       x17       0
 LI bnd       x18       0
 LI bnd       x19       0
 LI bnd       x20       0
 LI bnd       x21       0
 LI bnd       x22       0
 LI bnd       x23       0
 LI bnd       x24       0
 LI bnd       x25       0
 LI bnd       x26       0
 LI bnd       x27       0
 LI bnd       x28       0
 LI bnd       x29       0
 LI bnd       x30       0
 LI bnd       x31       0
 LI bnd       x32       0
 LI bnd       x33       0
 LI bnd       x34       0
 LI bnd       x35       0
 LI bnd       x36       0
 LI bnd       x37       0
 LI bnd       x38       0
 LI bnd       x39       0
 LI bnd       x40       0
 LI bnd       x41       0
 LI bnd       x42       0
 LI bnd       x43       0
 LI bnd       x44       0
 LI bnd       x45       0
 LI bnd       x46       0
 LI bnd       x47       0
 LI bnd       x48       0
 LI bnd       x49       0
 LI bnd       x50       0
ENDATA
